Route #1: 60 26 124 152 158 14 73 49 126 4 171 13
Route #2: 85 24 173 140 177 104 33 119 8 143 153 166
Route #3: 64 117 132 34 50 179 70 63 148 165 120 123 47
Route #4: 65 44 92 138 21 147 169 146 76 57 46 137 55 48
Route #5: 67 42 86 53 154 175 170 181 108 43 41 38
Route #6: 72 88 59 22 121 164 87 145 136 95 168 162 5 111
Route #7: 2 30 93 182 183 9 77 16 19 184 129 12 107
Route #8: 74 128 99 82 45 91 39 29 150 51 134 83
Route #9: 52 100 115 118 36 61 157 3 79 156 142
Route #10: 101 96 174 178 114 17 80 110 149 161 113 116 18
Route #11: 185 31 103 90 7 131 10 6 133 25 160 62 56
Route #12: 127 130 141 125 167 109 105 23 32 1 144 163 15
Route #13: 37 40 78 75 81 106 97 102 84 27 89 98
Route #14: 71 135 35 180 11 94 54 112 20 66 151 122 139
Route #15: 69 159 28 172 68 155 58 176
Cost 26607
